0000000000000000
0000000000000000
0000111111100000
0000000011100000
0000000001100000
0000000001100000
0000000001100000
0000000001100000
0000000001100000
0000000001100000
0000000001100000
0000000001100000
0000000001100000
0000000001100000
0000000000000000
0000000000000000
